p tw 244 265
1 2
2 113
3 14
4 5
5 6
6 7
7 8
8 9
9 10
10 11
10 17
11 12
12 13
13 15
14 25
15 16
16 17
17 18
18 19
19 34
20 21
21 22
22 23
23 24
24 26
25 36
26 27
27 28
28 29
28 34
29 30
30 31
31 32
32 33
33 34
34 35
35 37
36 47
37 38
38 39
39 40
40 41
41 42
41 70
42 43
43 44
44 45
45 46
46 48
47 58
48 49
49 50
50 51
51 52
52 53
52 67
53 54
54 55
55 56
56 57
57 59
58 69
59 60
59 64
60 61
61 62
62 63
63 64
64 65
65 66
66 45
67 68
68 70
69 80
70 71
71 72
72 73
73 74
74 75
75 76
76 77
77 78
77 119
78 79
79 81
80 91
80 197
81 82
82 83
82 85
83 84
84 89
85 86
86 87
87 88
88 89
89 90
90 92
91 102
92 93
93 94
93 99
94 95
95 96
96 97
97 98
98 105
99 100
100 101
101 103
102 114
103 104
104 105
105 106
106 107
107 108
108 109
109 110
110 111
111 112
111 75
112 115
113 168
114 125
115 116
116 117
117 118
118 75
119 120
120 121
121 122
121 152
122 123
123 124
124 126
125 136
125 197
126 127
126 129
127 128
128 133
129 130
130 131
131 132
132 133
133 134
134 135
135 137
136 147
136 163
137 138
138 139
139 140
140 141
141 142
142 143
143 144
144 145
145 146
145 152
146 148
147 158
148 149
149 150
150 151
151 152
152 153
153 154
154 155
155 156
156 157
157 159
158 166
159 160
160 161
161 162
163 164
164 165
165 166
166 167
167 169
168 179
169 170
170 171
170 178
171 172
172 173
172 178
173 174
174 175
175 176
176 177
177 184
178 180
179 190
180 181
181 182
182 183
183 184
184 185
185 186
186 187
187 188
188 189
189 191
190 201
191 192
191 14
192 193
193 194
194 195
195 196
196 14
197 198
198 199
198 207
199 200
200 202
201 212
202 203
203 204
204 205
205 206
206 161
207 208
208 209
209 210
210 211
210 20
211 213
211 215
212 223
213 214
214 218
215 216
216 217
217 218
218 219
219 220
220 221
221 222
222 224
223 234
224 225
225 226
226 227
227 228
228 229
229 230
230 231
231 232
232 233
233 235
233 240
234 3
235 236
236 237
237 238
238 239
239 240
240 241
241 242
242 243
243 244
244 4
